
Welcome to IBM(R) ILOG(R) CPLEX(R) Interactive Optimizer 22.1.1.0
  with Simplex, Mixed Integer & Barrier Optimizers
5725-A06 5725-A29 5724-Y48 5724-Y49 5724-Y54 5724-Y55 5655-Y21
Copyright IBM Corp. 1988, 2022.  All Rights Reserved.

Type 'help' for a list of available commands.
Type 'help' followed by a command name for more
information on commands.

CPLEX> Selected objective sense:  MINIMIZE
Selected objective  name:  00000000
Selected RHS        name:  RHS1
Selected bound      name:  BOUND
Problem 'ee.mps' read.
Read time = 0.03 sec. (3.14 ticks)
CPLEX> New value for time limit in seconds: 7200
CPLEX> New value for parallel optimization mode: -1
CPLEX> New value for default parallel thread count: 40
CPLEX> New value for mixed integer optimality gap tolerance: 1e-13
CPLEX> Version identifier: 22.1.1.0 | 2022-11-28 | 9160aff4d
CPXPARAM_Threads                                 40
CPXPARAM_Parallel                                -1
CPXPARAM_TimeLimit                               7200
CPXPARAM_MIP_Tolerances_MIPGap                   1e-13
Found incumbent of value 0.000000 after 0.00 sec. (0.31 ticks)
Tried aggregator 2 times.
MIP Presolve eliminated 178 rows and 2745 columns.
MIP Presolve modified 5862 coefficients.
Aggregator did 713 substitutions.
Reduced MIP has 3624 rows, 7739 columns, and 28646 nonzeros.
Reduced MIP has 7739 binaries, 0 generals, 0 SOSs, and 0 indicators.
Presolve time = 0.07 sec. (68.57 ticks)
Probing time = 0.03 sec. (5.31 ticks)
Tried aggregator 1 time.
Detecting symmetries...
Reduced MIP has 3624 rows, 7739 columns, and 28646 nonzeros.
Reduced MIP has 7739 binaries, 0 generals, 0 SOSs, and 0 indicators.
Presolve time = 0.03 sec. (21.84 ticks)
Probing time = 0.02 sec. (5.10 ticks)
Clique table members: 18552.
MIP emphasis: balance optimality and feasibility.
MIP search method: dynamic search.
Parallel mode: opportunistic, using up to 40 threads.
Root relaxation solution time = 0.12 sec. (103.82 ticks)

        Nodes                                         Cuts/
   Node  Left     Objective  IInf  Best Integer    Best Bound    ItCnt     Gap

*     0+    0                            0.0000  -1.31000e+13              --- 
*     0+    0                      -3.30000e+12  -1.31000e+13           296.97%
*     0+    0                      -4.29000e+12  -1.31000e+13           205.36%
*     0+    0                      -4.40000e+12  -1.31000e+13           197.73%
*     0+    0                      -6.60000e+12  -1.31000e+13            98.48%
      0     0  -1.30900e+13    60  -6.60000e+12  -1.30900e+13     2585   98.33%
      0     0  -1.30900e+13   136  -6.60000e+12      Cuts: 65     2833   98.33%
*     0+    0                      -1.30900e+13  -1.30900e+13             0.00%
      0     0  -1.30900e+13   149  -1.30900e+13      Cuts: 73     3361    0.00%
*     0+    0                      -1.30900e+13  -1.30900e+13             0.00%
      0     2  -1.30900e+13   146  -1.30900e+13  -1.30900e+13     3362    0.00%
Elapsed time = 1.83 sec. (726.50 ticks, tree = 0.02 MB, solutions = 7)
    817    75  -1.30900e+13    11  -1.30900e+13  -1.30900e+13    31098    0.00%
   2441   210        cutoff        -1.30900e+13  -1.30900e+13    62522    0.00%
   3836   655  -1.30900e+13   100  -1.30900e+13  -1.30900e+13   122874    0.00%
   4392   571        cutoff        -1.30900e+13  -1.30900e+13   109338    0.00%
   5095   980        cutoff        -1.30900e+13  -1.30900e+13   152606    0.00%
   6199  1295        cutoff        -1.30900e+13  -1.30900e+13   183816    0.00%
   7300  2122  -1.30900e+13    27  -1.30900e+13  -1.30900e+13   332783    0.00%
   8261  1693  -1.30900e+13   120  -1.30900e+13  -1.30900e+13   248782    0.00%
   9257  1524  -1.30900e+13   150  -1.30900e+13  -1.30900e+13   220899    0.00%
* 11584  2495      integral     0  -1.30900e+13  -1.30900e+13   425470    0.00%
  12026  2733        cutoff        -1.30900e+13  -1.30900e+13   504184    0.00%
Elapsed time = 6.59 sec. (3829.61 ticks, tree = 64.19 MB, solutions = 8)
  13171  2918        cutoff        -1.30900e+13  -1.30900e+13   604760    0.00%

Performing restart 1

Repeating presolve.
Tried aggregator 2 times.
MIP Presolve eliminated 994 rows and 2613 columns.
MIP Presolve added 40 rows and 0 columns.
MIP Presolve modified 2094 coefficients.
Aggregator did 396 substitutions.
Reduced MIP has 2204 rows, 4700 columns, and 16986 nonzeros.
Reduced MIP has 4700 binaries, 0 generals, 0 SOSs, and 0 indicators.
Presolve time = 0.06 sec. (64.88 ticks)
Tried aggregator 1 time.
MIP Presolve eliminated 15 rows and 12 columns.
Reduced MIP has 2189 rows, 4685 columns, and 16947 nonzeros.
Reduced MIP has 4685 binaries, 0 generals, 0 SOSs, and 0 indicators.
Presolve time = 0.02 sec. (18.53 ticks)
Represolve time = 0.17 sec. (119.61 ticks)
  13317     0  -1.30900e+13   199  -1.30900e+13      Cuts: 41   742427    0.00%
  13317     0  -1.30900e+13   201  -1.30900e+13      Cuts: 16   742569    0.00%
  13317     0  -1.30900e+13   215  -1.30900e+13      Cuts: 20   742941    0.00%
  13317     0  -1.30900e+13   269  -1.30900e+13      Cuts: 28   743057    0.00%
  13317    21        cutoff        -1.30900e+13  -1.30900e+13   747644    0.00%
  15202    39  -1.30900e+13    90  -1.30900e+13  -1.30900e+13   764039    0.00%

Clique cuts applied:  17
Cover cuts applied:  284
Mixed integer rounding cuts applied:  7
Zero-half cuts applied:  39
Gomory fractional cuts applied:  16

Root node processing (before b&c):
  Real time             =    0.81 sec. (713.11 ticks)
Parallel b&c, 40 threads:
  Real time             =    9.96 sec. (6810.85 ticks)
  Sync time (average)   =    2.00 sec.
  Wait time (average)   =    0.07 sec.
                          ------------
Total (root+branch&cut) =   10.77 sec. (7523.96 ticks)

Solution pool: 8 solutions saved.

MIP - Integer optimal solution:  Objective = -1.3089999391e+13
Solution time =   10.91 sec.  Iterations = 795725  Nodes = 15268
Deterministic time = 7523.99 ticks  (689.71 ticks/sec)

CPLEX> Solution 'p9' written to file 'ee.sol'.
CPLEX> 